10J3M/DAT/10J3MUTA-14.dat
10 3
29.0679 844.9428
1.4472 2.0944
28.5757 816.5706
49.6229 2462.4322
4.2257 17.8565
17.2989 299.2519
49.6496 2465.0828
13.6638 186.6994
7.4002 54.763
29.1649 850.5914
2000.0713