10J3M/SOL/10J3MUTA-14.sol
solution status: optimal solution found
objective value:                     59.5639666666667
x#1#1                                               1 	(obj:0)
x#2#1                                               1 	(obj:0)
x#3#3                                               1 	(obj:0)
x#4#2                                               1 	(obj:0)
x#5#1                                               1 	(obj:0)
x#6#2                                               1 	(obj:0)
x#7#2                               0.496151093114097 	(obj:0)
x#7#3                               0.503848906885903 	(obj:0)
x#8#1                               0.554185866537816 	(obj:0)
x#8#2                               0.445814133462183 	(obj:0)
x#9#1                                               1 	(obj:0)
x#10#1                                              1 	(obj:0)
z                                    59.5639666666667 	(obj:1)
